6019.0 328226.0 
6020.0 328119.0 
6007.0 328273.0 
6084.0 326044.0 
6099.0 325626.0 
6098.0 325689.0 
6036.0 327531.0 
6110.0 324341.0 
6107.0 324722.0 
6073.0 326786.0 
5996.0 335454.0 
6121.0 323173.0 
6010.0 328234.0 
6115.0 323470.0 
6102.0 324960.0 
5992.0 339907.0 
5991.0 339946.0 
6005.0 331904.0 
6155.0 322953.0 
5997.0 334372.0 
6141.0 323137.0 
